c CNF
c from Selman's wff generator
p cnf 200  1400
1.0 115 -177 0
1.0 89 -85 0
1.0 -98 167 0
1.0 -29 102 0
1.0 26 6 0
1.0 -127 150 0
1.0 -93 -103 0
1.0 73 -171 0
1.0 -147 129 0
1.0 -14 -180 0
1.0 -146 -73 0
1.0 174 -120 0
1.0 126 77 0
1.0 -46 -145 0
1.0 110 133 0
1.0 191 -8 0
1.0 -117 62 0
1.0 198 44 0
1.0 183 -16 0
1.0 61 -43 0
1.0 119 -81 0
1.0 -25 -27 0
1.0 160 -133 0
1.0 141 42 0
1.0 -104 -2 0
1.0 -45 196 0
1.0 -12 14 0
1.0 57 -158 0
1.0 -38 118 0
1.0 -145 -52 0
1.0 185 -13 0
1.0 -55 -124 0
1.0 125 -136 0
1.0 -132 -30 0
1.0 44 127 0
1.0 84 -72 0
1.0 -189 -14 0
1.0 65 182 0
1.0 -195 92 0
1.0 15 -155 0
1.0 -91 66 0
1.0 -96 -104 0
1.0 30 -178 0
1.0 50 113 0
1.0 -126 -21 0
1.0 3 -9 0
1.0 100 -11 0
1.0 166 52 0
1.0 117 160 0
1.0 -64 40 0
1.0 18 188 0
1.0 -100 43 0
1.0 64 76 0
1.0 85 -53 0
1.0 63 107 0
1.0 158 150 0
1.0 110 -160 0
1.0 200 36 0
1.0 24 -74 0
1.0 -117 -189 0
1.0 64 -164 0
1.0 -16 108 0
1.0 -14 -29 0
1.0 179 190 0
1.0 150 -132 0
1.0 -167 -127 0
1.0 -1 -50 0
1.0 38 -63 0
1.0 27 144 0
1.0 -51 182 0
1.0 10 -27 0
1.0 17 -82 0
1.0 -13 -136 0
1.0 -63 82 0
1.0 -132 -85 0
1.0 147 -79 0
1.0 22 121 0
1.0 -102 -135 0
1.0 162 -173 0
1.0 -55 175 0
1.0 110 -62 0
1.0 143 17 0
1.0 102 17 0
1.0 96 -116 0
1.0 -36 -190 0
1.0 -127 50 0
1.0 -149 -112 0
1.0 57 -21 0
1.0 68 5 0
1.0 -40 136 0
1.0 -179 34 0
1.0 -55 69 0
1.0 58 -68 0
1.0 117 194 0
1.0 -105 -37 0
1.0 57 -20 0
1.0 25 140 0
1.0 -76 194 0
1.0 -28 72 0
1.0 -140 -78 0
1.0 -146 33 0
1.0 -26 -65 0
1.0 101 -115 0
1.0 134 -172 0
1.0 112 -91 0
1.0 85 -143 0
1.0 -15 -189 0
1.0 -67 165 0
1.0 198 134 0
1.0 -199 1 0
1.0 116 47 0
1.0 18 -140 0
1.0 -30 -117 0
1.0 -157 -26 0
1.0 19 -142 0
1.0 -94 25 0
1.0 100 -5 0
1.0 159 125 0
1.0 182 -65 0
1.0 -72 -153 0
1.0 69 65 0
1.0 -91 -61 0
1.0 2 185 0
1.0 -9 -75 0
1.0 79 147 0
1.0 71 24 0
1.0 -88 -66 0
1.0 18 123 0
1.0 -187 135 0
1.0 -195 -83 0
1.0 67 79 0
1.0 -153 14 0
1.0 161 193 0
1.0 16 -112 0
1.0 177 -56 0
1.0 178 -124 0
1.0 58 193 0
1.0 76 -27 0
1.0 105 141 0
1.0 155 -3 0
1.0 -195 157 0
1.0 -68 30 0
1.0 86 176 0
1.0 100 -120 0
1.0 112 -68 0
1.0 -94 -59 0
1.0 200 -148 0
1.0 150 -144 0
1.0 -100 -15 0
1.0 44 -67 0
1.0 -43 -50 0
1.0 170 19 0
1.0 87 -109 0
1.0 -168 -197 0
1.0 -145 35 0
1.0 178 189 0
1.0 3 192 0
1.0 -59 -56 0
1.0 106 168 0
1.0 -187 142 0
1.0 51 23 0
1.0 -20 -33 0
1.0 67 105 0
1.0 -93 96 0
1.0 -88 -165 0
1.0 20 -119 0
1.0 -86 90 0
1.0 -32 154 0
1.0 177 -198 0
1.0 -30 83 0
1.0 -188 19 0
1.0 -115 60 0
1.0 -25 120 0
1.0 -38 -195 0
1.0 -85 -167 0
1.0 -121 140 0
1.0 138 -97 0
1.0 180 -55 0
1.0 74 -4 0
1.0 -64 24 0
1.0 -143 -139 0
1.0 -134 99 0
1.0 -66 -98 0
1.0 38 -131 0
1.0 -27 177 0
1.0 -32 -6 0
1.0 10 20 0
1.0 -43 -84 0
1.0 -22 -91 0
1.0 -189 67 0
1.0 165 106 0
1.0 -37 123 0
1.0 100 -120 0
1.0 126 -42 0
1.0 62 -129 0
1.0 13 167 0
1.0 -57 53 0
1.0 120 163 0
1.0 69 -139 0
1.0 -62 -65 0
1.0 185 -38 0
1.0 80 -128 0
1.0 57 52 0
1.0 -18 134 0
1.0 -186 -94 0
1.0 -56 -18 0
1.0 157 77 0
1.0 -142 -197 0
1.0 34 -72 0
1.0 200 80 0
1.0 -131 -99 0
1.0 32 29 0
1.0 -123 -141 0
1.0 -159 -113 0
1.0 -190 -130 0
1.0 126 -114 0
1.0 186 -92 0
1.0 172 -125 0
1.0 24 166 0
1.0 195 -72 0
1.0 13 -195 0
1.0 108 196 0
1.0 126 21 0
1.0 134 -85 0
1.0 -177 -82 0
1.0 7 144 0
1.0 109 -100 0
1.0 171 -156 0
1.0 -150 115 0
1.0 -110 41 0
1.0 61 -183 0
1.0 -68 96 0
1.0 -177 -16 0
1.0 160 41 0
1.0 -140 -96 0
1.0 51 191 0
1.0 105 48 0
1.0 89 -12 0
1.0 -195 136 0
1.0 -31 56 0
1.0 -72 97 0
1.0 137 2 0
1.0 -98 -69 0
1.0 -59 -82 0
1.0 -130 6 0
1.0 -18 26 0
1.0 161 -109 0
1.0 -164 178 0
1.0 75 189 0
1.0 191 164 0
1.0 33 76 0
1.0 158 185 0
1.0 -190 30 0
1.0 56 71 0
1.0 179 -92 0
1.0 -70 -6 0
1.0 -195 -44 0
1.0 8 43 0
1.0 -119 108 0
1.0 -93 183 0
1.0 13 66 0
1.0 137 -108 0
1.0 199 92 0
1.0 98 36 0
1.0 79 167 0
1.0 -10 -149 0
1.0 57 -55 0
1.0 38 166 0
1.0 -31 -119 0
1.0 27 2 0
1.0 94 -140 0
1.0 175 105 0
1.0 -72 158 0
1.0 106 -64 0
1.0 -118 -12 0
1.0 177 141 0
1.0 -59 123 0
1.0 -125 57 0
1.0 196 -4 0
1.0 108 -90 0
1.0 48 -161 0
1.0 -24 -70 0
1.0 82 26 0
1.0 166 101 0
1.0 -23 -41 0
1.0 -98 20 0
1.0 23 -173 0
1.0 -63 -86 0
1.0 47 171 0
1.0 40 -179 0
1.0 -4 -108 0
1.0 -8 45 0
1.0 -85 -102 0
1.0 121 -142 0
1.0 115 -139 0
1.0 24 184 0
1.0 -154 -150 0
1.0 -128 -152 0
1.0 59 92 0
1.0 136 92 0
1.0 194 -75 0
1.0 16 -79 0
1.0 -17 131 0
1.0 -115 193 0
1.0 142 51 0
1.0 -3 173 0
1.0 -64 -98 0
1.0 190 -25 0
1.0 100 -22 0
1.0 100 -155 0
1.0 -86 -151 0
1.0 143 68 0
1.0 -118 -128 0
1.0 -100 -151 0
1.0 -49 110 0
1.0 135 183 0
1.0 -5 -118 0
1.0 73 -193 0
1.0 -143 178 0
1.0 -45 -25 0
1.0 152 122 0
1.0 73 -64 0
1.0 -173 -178 0
1.0 -161 -180 0
1.0 98 -89 0
1.0 -81 90 0
1.0 -67 -85 0
1.0 109 79 0
1.0 -1 156 0
1.0 -20 -126 0
1.0 104 153 0
1.0 133 40 0
1.0 -129 98 0
1.0 187 127 0
1.0 -11 -143 0
1.0 -22 39 0
1.0 194 90 0
1.0 15 -88 0
1.0 -41 -104 0
1.0 144 11 0
1.0 109 2 0
1.0 -128 -115 0
1.0 57 114 0
1.0 152 -35 0
1.0 -124 -194 0
1.0 82 -162 0
1.0 66 40 0
1.0 50 -97 0
1.0 98 163 0
1.0 -78 -2 0
1.0 115 20 0
1.0 54 -112 0
1.0 -106 -168 0
1.0 -130 -173 0
1.0 12 3 0
1.0 99 -87 0
1.0 49 -73 0
1.0 74 -185 0
1.0 5 72 0
1.0 184 64 0
1.0 32 -152 0
1.0 -125 -184 0
1.0 -186 161 0
1.0 47 19 0
1.0 91 -104 0
1.0 -88 82 0
1.0 -154 -7 0
1.0 71 -187 0
1.0 139 102 0
1.0 86 19 0
1.0 -180 199 0
1.0 -17 -37 0
1.0 140 144 0
1.0 -26 121 0
1.0 -71 117 0
1.0 -143 6 0
1.0 -69 59 0
1.0 59 1 0
1.0 156 -94 0
1.0 -16 -183 0
1.0 -56 161 0
1.0 -81 -165 0
1.0 81 18 0
1.0 24 4 0
1.0 -63 -197 0
1.0 -197 -46 0
1.0 -140 -54 0
1.0 -36 77 0
1.0 -37 -99 0
1.0 63 -86 0
1.0 -103 -76 0
1.0 79 -35 0
1.0 31 197 0
1.0 -43 -42 0
1.0 -95 -123 0
1.0 200 50 0
1.0 -149 193 0
1.0 -78 -20 0
1.0 -96 -122 0
1.0 -156 -124 0
1.0 120 -179 0
1.0 -20 -191 0
1.0 114 -79 0
1.0 -129 65 0
1.0 57 -101 0
1.0 -121 42 0
1.0 -164 -21 0
1.0 -144 106 0
1.0 84 -117 0
1.0 108 169 0
1.0 -48 -61 0
1.0 125 -81 0
1.0 -182 -140 0
1.0 -181 -29 0
1.0 50 -108 0
1.0 13 167 0
1.0 -84 -83 0
1.0 52 16 0
1.0 76 144 0
1.0 -25 127 0
1.0 -66 96 0
1.0 -125 -25 0
1.0 -132 -53 0
1.0 20 -24 0
1.0 107 -40 0
1.0 56 -104 0
1.0 -47 131 0
1.0 58 -113 0
1.0 -8 -183 0
1.0 -7 -160 0
1.0 13 74 0
1.0 -97 124 0
1.0 -163 26 0
1.0 -129 -17 0
1.0 148 82 0
1.0 -194 122 0
1.0 -104 -98 0
1.0 57 41 0
1.0 -114 131 0
1.0 54 34 0
1.0 60 -174 0
1.0 -191 -185 0
1.0 -67 9 0
1.0 131 71 0
1.0 -169 196 0
1.0 36 -193 0
1.0 -124 -195 0
1.0 -28 172 0
1.0 146 -30 0
1.0 15 38 0
1.0 -47 -16 0
1.0 87 2 0
1.0 198 156 0
1.0 -149 174 0
1.0 168 -140 0
1.0 112 44 0
1.0 -74 157 0
1.0 -195 66 0
1.0 82 -109 0
1.0 111 -29 0
1.0 -184 -103 0
1.0 77 122 0
1.0 62 -54 0
1.0 98 -122 0
1.0 79 23 0
1.0 -88 -28 0
1.0 -136 132 0
1.0 -160 155 0
1.0 -95 76 0
1.0 80 -183 0
1.0 23 -52 0
1.0 82 -2 0
1.0 -60 96 0
1.0 9 -162 0
1.0 -99 69 0
1.0 -24 -44 0
1.0 -119 -60 0
1.0 -43 13 0
1.0 64 -162 0
1.0 163 32 0
1.0 -128 -43 0
1.0 4 -132 0
1.0 -1 177 0
1.0 -20 -83 0
1.0 -143 -76 0
1.0 88 -69 0
1.0 30 -60 0
1.0 92 147 0
1.0 -189 -123 0
1.0 55 31 0
1.0 8 56 0
1.0 -139 21 0
1.0 96 -104 0
1.0 -172 116 0
1.0 -176 31 0
1.0 177 -6 0
1.0 -129 -40 0
1.0 71 52 0
1.0 -108 117 0
1.0 -137 71 0
1.0 175 -192 0
1.0 -108 150 0
1.0 -181 -138 0
1.0 -144 35 0
1.0 75 -80 0
1.0 132 91 0
1.0 8 -127 0
1.0 -198 -10 0
1.0 -2 -192 0
1.0 -141 -63 0
1.0 1 -142 0
1.0 177 1 0
1.0 -81 69 0
1.0 160 -18 0
1.0 -144 -134 0
1.0 -144 -87 0
1.0 79 31 0
1.0 -94 48 0
1.0 189 -19 0
1.0 20 52 0
1.0 -120 12 0
1.0 29 -162 0
1.0 -95 156 0
1.0 -43 -27 0
1.0 -58 -39 0
1.0 86 81 0
1.0 99 -82 0
1.0 134 56 0
1.0 -67 130 0
1.0 92 -178 0
1.0 134 -181 0
1.0 7 8 0
1.0 46 -37 0
1.0 117 59 0
1.0 -140 44 0
1.0 -100 -153 0
1.0 83 -59 0
1.0 -37 -127 0
1.0 -107 -183 0
1.0 -190 43 0
1.0 -80 -192 0
1.0 51 -170 0
1.0 14 -147 0
1.0 99 -190 0
1.0 -48 139 0
1.0 66 -115 0
1.0 98 200 0
1.0 -43 -64 0
1.0 -55 -88 0
1.0 58 131 0
1.0 -77 -158 0
1.0 -147 -61 0
1.0 200 112 0
1.0 26 -132 0
1.0 132 -122 0
1.0 186 132 0
1.0 -19 16 0
1.0 -146 40 0
1.0 -198 -130 0
1.0 -191 -153 0
1.0 65 16 0
1.0 148 91 0
1.0 12 -22 0
1.0 154 -151 0
1.0 166 -182 0
1.0 -22 195 0
1.0 -124 -130 0
1.0 -83 -100 0
1.0 116 158 0
1.0 -48 49 0
1.0 71 196 0
1.0 -147 -94 0
1.0 76 44 0
1.0 -38 -157 0
1.0 86 -78 0
1.0 -178 179 0
1.0 -136 -152 0
1.0 1 98 0
1.0 94 99 0
1.0 -192 90 0
1.0 -133 -176 0
1.0 -132 79 0
1.0 -156 -8 0
1.0 186 -102 0
1.0 -53 181 0
1.0 -78 -147 0
1.0 45 18 0
1.0 -107 163 0
1.0 138 66 0
1.0 144 142 0
1.0 149 -73 0
1.0 174 59 0
1.0 39 -160 0
1.0 107 -3 0
1.0 -20 -99 0
1.0 -61 -90 0
1.0 155 175 0
1.0 -116 154 0
1.0 -27 31 0
1.0 89 -54 0
1.0 14 -106 0
1.0 108 -132 0
1.0 31 59 0
1.0 148 -20 0
1.0 -194 -157 0
1.0 -111 -198 0
1.0 -28 -173 0
1.0 27 164 0
1.0 -69 -88 0
1.0 -20 32 0
1.0 -90 159 0
1.0 -178 -30 0
1.0 186 138 0
1.0 135 -55 0
1.0 27 170 0
1.0 133 121 0
1.0 -8 54 0
1.0 85 -83 0
1.0 41 17 0
1.0 -46 150 0
1.0 -88 70 0
1.0 -124 -160 0
1.0 130 63 0
1.0 184 -97 0
1.0 150 42 0
1.0 124 -95 0
1.0 -111 -20 0
1.0 -170 169 0
1.0 38 -115 0
1.0 -74 63 0
1.0 126 -116 0
1.0 12 -129 0
1.0 -170 118 0
1.0 13 -5 0
1.0 25 -36 0
1.0 5 67 0
1.0 181 129 0
1.0 192 -117 0
1.0 32 123 0
1.0 51 125 0
1.0 -42 1 0
1.0 -6 168 0
1.0 4 57 0
1.0 123 -74 0
1.0 -3 -56 0
1.0 -173 16 0
1.0 139 -136 0
1.0 60 -53 0
1.0 -53 121 0
1.0 89 133 0
1.0 -189 -112 0
1.0 186 -153 0
1.0 -9 -174 0
1.0 -189 -93 0
1.0 -28 32 0
1.0 -84 -125 0
1.0 -46 -146 0
1.0 79 82 0
1.0 -194 -127 0
1.0 -80 194 0
1.0 167 -148 0
1.0 40 52 0
1.0 -83 -198 0
1.0 -122 -145 0
1.0 90 -97 0
1.0 179 -126 0
1.0 -53 -14 0
1.0 7 -116 0
1.0 -64 -87 0
1.0 -139 11 0
1.0 -8 -126 0
1.0 70 -90 0
1.0 -186 -196 0
1.0 -122 -162 0
1.0 -175 -86 0
1.0 -2 126 0
1.0 -13 -84 0
1.0 -95 -139 0
1.0 65 -159 0
1.0 49 126 0
1.0 -121 21 0
1.0 183 -135 0
1.0 -20 123 0
1.0 48 95 0
1.0 178 54 0
1.0 -193 182 0
1.0 -140 -5 0
1.0 131 86 0
1.0 107 21 0
1.0 155 -110 0
1.0 -32 186 0
1.0 -80 82 0
1.0 -136 -148 0
1.0 -129 104 0
1.0 108 177 0
1.0 62 -79 0
1.0 100 184 0
1.0 94 -103 0
1.0 88 -25 0
1.0 107 143 0
1.0 -90 153 0
1.0 57 -155 0
1.0 131 -144 0
1.0 -23 -93 0
1.0 -77 -17 0
1.0 119 7 0
1.0 -31 -99 0
1.0 -42 -197 0
1.0 -150 148 0
1.0 -103 37 0
1.0 181 172 0
1.0 -65 -186 0
1.0 -2 -104 0
1.0 -110 -6 0
1.0 105 -99 0
1.0 95 56 0
1.0 4 -27 0
1.0 -64 18 0
1.0 190 164 0
1.0 -149 -174 0
1.0 77 -106 0
1.0 -112 196 0
1.0 -94 -4 0
1.0 59 39 0
1.0 -65 -81 0
1.0 -99 106 0
1.0 -70 20 0
1.0 -194 137 0
1.0 42 -38 0
1.0 -33 -182 0
1.0 -186 131 0
1.0 -169 147 0
1.0 -27 -74 0
1.0 180 134 0
1.0 154 -155 0
1.0 91 -36 0
1.0 -73 86 0
1.0 55 -32 0
1.0 -147 84 0
1.0 -190 187 0
1.0 149 44 0
1.0 57 92 0
1.0 -159 -183 0
1.0 200 35 0
1.0 -121 -173 0
1.0 -5 -167 0
1.0 51 114 0
1.0 -100 162 0
1.0 -6 146 0
1.0 38 -166 0
1.0 -149 -174 0
1.0 8 -57 0
1.0 -30 148 0
1.0 -115 -63 0
1.0 176 27 0
1.0 -188 -108 0
1.0 53 54 0
1.0 20 -126 0
1.0 -99 -76 0
1.0 133 -138 0
1.0 -86 137 0
1.0 -200 -179 0
1.0 5 -170 0
1.0 -77 -174 0
1.0 28 39 0
1.0 164 105 0
1.0 -181 -133 0
1.0 71 -4 0
1.0 -140 -71 0
1.0 -50 122 0
1.0 91 -164 0
1.0 138 -31 0
1.0 69 116 0
1.0 21 29 0
1.0 -162 64 0
1.0 -68 190 0
1.0 -61 -146 0
1.0 -67 -60 0
1.0 -24 -10 0
1.0 -40 -23 0
1.0 -138 -139 0
1.0 -167 -36 0
1.0 -100 -73 0
1.0 -62 -148 0
1.0 94 -120 0
1.0 -180 195 0
1.0 -4 44 0
1.0 -66 91 0
1.0 -29 -93 0
1.0 -129 120 0
1.0 -192 83 0
1.0 -31 -168 0
1.0 88 8 0
1.0 2 71 0
1.0 -35 -50 0
1.0 -2 115 0
1.0 75 -150 0
1.0 -72 -50 0
1.0 -44 40 0
1.0 16 109 0
1.0 192 -166 0
1.0 36 31 0
1.0 -80 150 0
1.0 -64 -149 0
1.0 -98 -197 0
1.0 -47 119 0
1.0 -159 -109 0
1.0 -17 199 0
1.0 164 -21 0
1.0 51 -41 0
1.0 191 64 0
1.0 -13 -187 0
1.0 183 126 0
1.0 -45 4 0
1.0 -112 -20 0
1.0 -18 -173 0
1.0 -193 137 0
1.0 -178 -50 0
1.0 114 -186 0
1.0 172 -15 0
1.0 -141 -116 0
1.0 -119 102 0
1.0 -121 -164 0
1.0 -137 -93 0
1.0 -30 101 0
1.0 -151 147 0
1.0 -132 -196 0
1.0 11 -28 0
1.0 -143 39 0
1.0 140 123 0
1.0 -87 49 0
1.0 -142 -119 0
1.0 -20 -124 0
1.0 70 153 0
1.0 -149 -26 0
1.0 -53 -159 0
1.0 198 -45 0
1.0 -168 149 0
1.0 198 -197 0
1.0 -116 -27 0
1.0 -151 90 0
1.0 43 -141 0
1.0 -166 124 0
1.0 83 61 0
1.0 106 72 0
1.0 -21 15 0
1.0 -12 -3 0
1.0 30 -69 0
1.0 -158 166 0
1.0 -106 20 0
1.0 144 143 0
1.0 -3 -105 0
1.0 -177 -122 0
1.0 137 -108 0
1.0 110 -172 0
1.0 -40 -135 0
1.0 -100 118 0
1.0 138 191 0
1.0 -133 -168 0
1.0 73 11 0
1.0 133 25 0
1.0 132 60 0
1.0 -31 90 0
1.0 25 -99 0
1.0 -16 -67 0
1.0 58 -7 0
1.0 -174 140 0
1.0 151 170 0
1.0 -195 -140 0
1.0 -200 168 0
1.0 -58 148 0
1.0 46 170 0
1.0 37 136 0
1.0 142 -49 0
1.0 -188 -9 0
1.0 179 -56 0
1.0 196 -173 0
1.0 141 -66 0
1.0 14 126 0
1.0 -96 -86 0
1.0 21 -135 0
1.0 183 -108 0
1.0 -117 39 0
1.0 95 129 0
1.0 102 165 0
1.0 31 110 0
1.0 -36 -120 0
1.0 6 24 0
1.0 -158 -88 0
1.0 -195 -66 0
1.0 105 -20 0
1.0 149 73 0
1.0 37 175 0
1.0 -84 -131 0
1.0 50 14 0
1.0 37 -113 0
1.0 -200 -69 0
1.0 -135 47 0
1.0 67 112 0
1.0 184 127 0
1.0 101 -156 0
1.0 -86 -199 0
1.0 -13 155 0
1.0 68 71 0
1.0 140 179 0
1.0 -26 169 0
1.0 -81 150 0
1.0 77 -171 0
1.0 -127 173 0
1.0 -172 -66 0
1.0 21 138 0
1.0 -8 -77 0
1.0 55 20 0
1.0 -188 133 0
1.0 -83 -78 0
1.0 -49 -18 0
1.0 -190 -97 0
1.0 -163 -134 0
1.0 71 179 0
1.0 55 -29 0
1.0 -48 47 0
1.0 -179 162 0
1.0 39 37 0
1.0 54 156 0
1.0 52 48 0
1.0 -182 150 0
1.0 -129 -71 0
1.0 99 -156 0
1.0 -2 -83 0
1.0 44 87 0
1.0 -123 -63 0
1.0 18 31 0
1.0 79 24 0
1.0 -174 -82 0
1.0 153 42 0
1.0 -198 -177 0
1.0 -60 -181 0
1.0 -68 -23 0
1.0 -85 -155 0
1.0 -186 185 0
1.0 -8 -55 0
1.0 137 35 0
1.0 -77 167 0
1.0 144 138 0
1.0 -119 -53 0
1.0 -75 -91 0
1.0 45 142 0
1.0 126 -30 0
1.0 -85 18 0
1.0 -53 -197 0
1.0 164 -50 0
1.0 -188 -75 0
1.0 127 16 0
1.0 -106 -67 0
1.0 -8 -19 0
1.0 49 -75 0
1.0 -93 -181 0
1.0 178 -63 0
1.0 112 77 0
1.0 152 159 0
1.0 174 96 0
1.0 163 -39 0
1.0 -58 -11 0
1.0 86 -170 0
1.0 -151 -193 0
1.0 55 -198 0
1.0 75 118 0
1.0 -76 70 0
1.0 -166 -184 0
1.0 23 160 0
1.0 -170 1 0
1.0 170 -24 0
1.0 16 157 0
1.0 154 117 0
1.0 35 -103 0
1.0 -173 -159 0
1.0 142 -90 0
1.0 49 163 0
1.0 163 -28 0
1.0 52 106 0
1.0 -62 99 0
1.0 16 175 0
1.0 -78 98 0
1.0 -56 -120 0
1.0 -9 53 0
1.0 15 -5 0
1.0 -33 148 0
1.0 -53 -161 0
1.0 -60 89 0
1.0 -64 -174 0
1.0 -71 -84 0
1.0 -4 178 0
1.0 30 85 0
1.0 89 -145 0
1.0 92 -131 0
1.0 91 -156 0
1.0 44 -189 0
1.0 162 148 0
1.0 -32 38 0
1.0 15 83 0
1.0 168 118 0
1.0 -62 -110 0
1.0 40 -182 0
1.0 137 -157 0
1.0 145 -103 0
1.0 -51 136 0
1.0 -174 -98 0
1.0 181 -166 0
1.0 84 -121 0
1.0 30 181 0
1.0 -163 197 0
1.0 153 78 0
1.0 180 168 0
1.0 -104 143 0
1.0 41 30 0
1.0 -195 97 0
1.0 17 172 0
1.0 -153 -123 0
1.0 119 115 0
1.0 -192 -94 0
1.0 62 -173 0
1.0 115 -113 0
1.0 -143 -106 0
1.0 3 144 0
1.0 116 40 0
1.0 -162 182 0
1.0 -96 197 0
1.0 91 -122 0
1.0 -94 60 0
1.0 -173 -158 0
1.0 64 138 0
1.0 81 -68 0
1.0 107 152 0
1.0 -133 47 0
1.0 -44 -102 0
1.0 23 -174 0
1.0 -33 3 0
1.0 -161 87 0
1.0 25 -172 0
1.0 -39 -176 0
1.0 127 166 0
1.0 13 163 0
1.0 -64 4 0
1.0 178 76 0
1.0 79 127 0
1.0 14 136 0
1.0 -107 -155 0
1.0 131 46 0
1.0 -12 105 0
1.0 68 -5 0
1.0 9 -69 0
1.0 -145 20 0
1.0 147 -12 0
1.0 -147 126 0
1.0 -81 142 0
1.0 188 -91 0
1.0 195 185 0
1.0 -190 -101 0
1.0 -170 -10 0
1.0 -30 -179 0
1.0 -190 -199 0
1.0 -124 133 0
1.0 74 189 0
1.0 79 82 0
1.0 -66 82 0
1.0 182 -129 0
1.0 138 -36 0
1.0 -14 2 0
1.0 -200 -78 0
1.0 -11 129 0
1.0 -117 -142 0
1.0 23 5 0
1.0 -86 5 0
1.0 133 197 0
1.0 32 84 0
1.0 85 181 0
1.0 59 189 0
1.0 -118 134 0
1.0 75 98 0
1.0 -102 -99 0
1.0 104 131 0
1.0 -127 -72 0
1.0 156 144 0
1.0 -125 -53 0
1.0 42 -130 0
1.0 -64 -4 0
1.0 102 23 0
1.0 -122 22 0
1.0 153 43 0
1.0 115 167 0
1.0 -111 40 0
1.0 93 -33 0
1.0 163 70 0
1.0 -74 -84 0
1.0 -107 199 0
1.0 21 -167 0
1.0 10 -112 0
1.0 -78 -87 0
1.0 127 105 0
1.0 -137 41 0
1.0 -110 -44 0
1.0 -128 88 0
1.0 86 -135 0
1.0 102 -112 0
1.0 23 -129 0
1.0 16 -31 0
1.0 -135 111 0
1.0 -151 113 0
1.0 156 95 0
1.0 -183 2 0
1.0 -137 177 0
1.0 -89 -52 0
1.0 181 -185 0
1.0 -15 -100 0
1.0 10 -100 0
1.0 12 -192 0
1.0 87 65 0
1.0 -66 168 0
1.0 144 110 0
1.0 -162 -189 0
1.0 -174 -154 0
1.0 -53 78 0
1.0 177 -159 0
1.0 -150 45 0
1.0 -110 -7 0
1.0 -175 -41 0
1.0 -151 -18 0
1.0 7 -92 0
1.0 -46 194 0
1.0 -71 106 0
1.0 64 186 0
1.0 31 -192 0
1.0 -199 -155 0
1.0 195 -94 0
1.0 112 -40 0
1.0 132 -112 0
1.0 105 -66 0
1.0 171 38 0
1.0 23 58 0
1.0 -50 99 0
1.0 53 109 0
1.0 -2 -112 0
1.0 152 49 0
1.0 161 128 0
1.0 193 -138 0
1.0 -175 -61 0
1.0 119 -47 0
1.0 145 -43 0
1.0 152 -37 0
1.0 148 37 0
1.0 -86 97 0
1.0 -24 44 0
1.0 -181 -149 0
1.0 -10 -179 0
1.0 26 -3 0
1.0 -46 -112 0
1.0 -148 12 0
1.0 -49 -16 0
1.0 -112 -178 0
1.0 -22 89 0
1.0 -38 133 0
1.0 -112 -110 0
1.0 -113 -71 0
1.0 -182 -75 0
1.0 87 -105 0
1.0 121 21 0
1.0 -199 48 0
1.0 137 -120 0
1.0 52 -179 0
1.0 88 197 0
1.0 -67 7 0
1.0 -82 -114 0
1.0 -19 -4 0
1.0 -24 172 0
1.0 20 -137 0
1.0 -56 -63 0
1.0 41 -152 0
1.0 -149 170 0
1.0 177 88 0
1.0 2 42 0
1.0 -46 129 0
1.0 100 -128 0
1.0 65 -133 0
1.0 195 6 0
1.0 -157 -99 0
1.0 -69 94 0
1.0 -181 -184 0
1.0 26 129 0
1.0 -57 -160 0
1.0 88 -32 0
1.0 164 -151 0
1.0 -156 -102 0
1.0 200 158 0
1.0 -51 138 0
1.0 122 -16 0
1.0 145 16 0
1.0 -176 159 0
1.0 191 -34 0
1.0 -184 -90 0
1.0 192 -106 0
1.0 63 -71 0
1.0 -9 -173 0
1.0 189 -159 0
1.0 -175 -96 0
1.0 55 91 0
1.0 -124 -30 0
1.0 120 -110 0
1.0 -16 100 0
1.0 -170 -162 0
1.0 -134 -136 0
1.0 95 185 0
1.0 80 -187 0
1.0 -78 33 0
1.0 -63 -177 0
1.0 87 -156 0
1.0 -55 195 0
1.0 157 171 0
1.0 107 109 0
1.0 93 -65 0
1.0 -52 -89 0
1.0 -122 -85 0
1.0 -62 -40 0
1.0 195 60 0
1.0 55 30 0
1.0 -200 -74 0
1.0 -182 112 0
1.0 177 46 0
1.0 -153 158 0
1.0 89 -171 0
1.0 -138 -47 0
1.0 96 -171 0
1.0 -43 -62 0
1.0 162 32 0
1.0 139 -171 0
1.0 -17 -78 0
1.0 35 -166 0
1.0 137 103 0
1.0 150 173 0
1.0 -143 -122 0
1.0 -184 -96 0
1.0 127 197 0
1.0 -168 -68 0
1.0 -145 -159 0
1.0 -125 157 0
1.0 -60 154 0
1.0 126 6 0
1.0 128 -24 0
1.0 120 154 0
1.0 -151 -76 0
1.0 -144 90 0
1.0 49 -52 0
1.0 8 171 0
1.0 124 170 0
1.0 -176 -129 0
1.0 153 171 0
1.0 -125 73 0
1.0 -149 29 0
1.0 -119 -93 0
1.0 -144 -48 0
1.0 18 -175 0
1.0 -145 -94 0
1.0 22 -109 0
1.0 79 40 0
1.0 112 163 0
1.0 -191 -70 0
1.0 162 -131 0
1.0 178 -16 0
1.0 -191 -76 0
1.0 170 -127 0
1.0 -35 -80 0
1.0 -120 10 0
1.0 173 -195 0
1.0 64 43 0
1.0 -174 -147 0
1.0 -162 -189 0
1.0 65 83 0
1.0 9 143 0
1.0 -23 -189 0
1.0 -199 -74 0
1.0 -68 -65 0
1.0 -107 5 0
1.0 152 -88 0
1.0 77 -178 0
1.0 -60 153 0
1.0 -96 -198 0
1.0 187 -69 0
1.0 -142 35 0
1.0 -99 90 0
1.0 95 98 0
1.0 -185 118 0
1.0 95 -25 0
1.0 177 175 0
1.0 -172 -135 0
1.0 -4 -52 0
1.0 -86 -99 0
1.0 -188 95 0
1.0 -192 -76 0
1.0 193 87 0
1.0 111 39 0
1.0 -14 -65 0
1.0 -200 152 0
1.0 -3 86 0
1.0 184 -102 0
1.0 197 -63 0
1.0 -139 -181 0
1.0 68 -3 0
1.0 42 60 0
1.0 124 -26 0
1.0 -177 -183 0
1.0 68 74 0
1.0 175 -141 0
1.0 -4 -76 0
1.0 57 -125 0
1.0 -127 -92 0
1.0 151 168 0
1.0 -194 -62 0
1.0 -45 -124 0
1.0 -197 -18 0
1.0 -159 -186 0
1.0 -62 -103 0
1.0 27 -177 0
1.0 -68 145 0
1.0 113 -145 0
1.0 7 91 0
1.0 -14 25 0
1.0 -42 -125 0
1.0 -110 -125 0
1.0 27 66 0
1.0 43 -132 0
1.0 -76 -129 0
1.0 73 22 0
1.0 -112 -169 0
1.0 -194 92 0
1.0 16 -117 0
1.0 41 196 0
1.0 -62 -186 0
1.0 117 -127 0
1.0 -55 -142 0
1.0 163 74 0
1.0 -43 136 0
1.0 27 135 0
1.0 -52 105 0
1.0 -101 -64 0
1.0 50 -79 0
1.0 -5 78 0
1.0 -20 -139 0
1.0 13 194 0
1.0 130 -56 0
1.0 -190 161 0
1.0 -65 -166 0
1.0 -30 92 0
1.0 170 -192 0
1.0 70 3 0
1.0 142 -22 0
1.0 15 -127 0
1.0 183 -99 0
1.0 59 -98 0
1.0 64 146 0
1.0 -38 15 0
1.0 -7 17 0
1.0 -19 -16 0
1.0 -37 36 0
1.0 -163 -122 0
1.0 -20 95 0
1.0 193 130 0
1.0 -76 -89 0
1.0 -104 -121 0
1.0 -137 -101 0
1.0 -117 -152 0
1.0 188 -29 0
1.0 151 -200 0
1.0 95 11 0
1.0 -140 49 0
1.0 -138 92 0
1.0 -13 -47 0
1.0 -148 138 0
1.0 90 21 0
1.0 50 -21 0
1.0 -20 -121 0
1.0 131 17 0
1.0 65 144 0
1.0 36 13 0
1.0 -59 195 0
1.0 133 103 0
1.0 124 -87 0
1.0 -108 -125 0
1.0 45 -141 0
1.0 158 42 0
1.0 185 130 0
1.0 142 68 0
1.0 62 -66 0
1.0 168 77 0
1.0 164 115 0
1.0 -39 35 0
1.0 176 -39 0
1.0 -80 102 0
1.0 31 -180 0
1.0 -47 -152 0
1.0 -17 -179 0
1.0 56 119 0
